c 
c G(n,p) graph
c graph gen seed     : 11553
c number of vertices : 25
c max number of edges: 500
c edge probability   : 0.800000
c data structure     : dense
c
c           Graph Stats
c number of vertices  : 25
c nonisolated vertices: 25
c number of edges     : 235
c edge density        : 0.783333
c max degree          : 23
c avg degree          : 18.80
c min degree          : 14
p col 25 235
e 1 4
e 1 5
e 1 6
e 1 7
e 1 10
e 1 11
e 1 12
e 1 13
e 1 14
e 1 15
e 1 16
e 1 17
e 1 18
e 1 19
e 1 20
e 1 21
e 1 22
e 1 23
e 1 24
e 1 25
e 2 4
e 2 5
e 2 6
e 2 8
e 2 12
e 2 13
e 2 14
e 2 15
e 2 16
e 2 17
e 2 18
e 2 21
e 2 22
e 2 23
e 3 4
e 3 6
e 3 7
e 3 8
e 3 9
e 3 10
e 3 11
e 3 13
e 3 15
e 3 16
e 3 17
e 3 21
e 3 22
e 3 24
e 4 5
e 4 6
e 4 8
e 4 10
e 4 11
e 4 12
e 4 13
e 4 14
e 4 15
e 4 16
e 4 17
e 4 18
e 4 19
e 4 20
e 4 21
e 4 22
e 4 23
e 4 24
e 4 25
e 5 6
e 5 8
e 5 9
e 5 10
e 5 12
e 5 13
e 5 14
e 5 16
e 5 17
e 5 18
e 5 20
e 5 21
e 5 22
e 5 23
e 5 25
e 6 7
e 6 9
e 6 10
e 6 11
e 6 12
e 6 13
e 6 14
e 6 15
e 6 16
e 6 18
e 6 19
e 6 22
e 6 24
e 6 25
e 7 9
e 7 10
e 7 12
e 7 13
e 7 14
e 7 15
e 7 17
e 7 18
e 7 20
e 7 21
e 7 22
e 7 24
e 7 25
e 8 11
e 8 12
e 8 13
e 8 14
e 8 15
e 8 16
e 8 17
e 8 18
e 8 19
e 8 21
e 8 22
e 8 23
e 8 24
e 8 25
e 9 10
e 9 13
e 9 15
e 9 16
e 9 17
e 9 18
e 9 20
e 9 21
e 9 22
e 9 23
e 9 24
e 9 25
e 10 11
e 10 12
e 10 13
e 10 15
e 10 16
e 10 17
e 10 18
e 10 19
e 10 20
e 10 21
e 10 22
e 10 23
e 10 24
e 10 25
e 11 12
e 11 13
e 11 14
e 11 15
e 11 18
e 11 20
e 11 21
e 11 24
e 11 25
e 12 13
e 12 14
e 12 15
e 12 16
e 12 18
e 12 19
e 12 20
e 12 21
e 12 22
e 12 24
e 12 25
e 13 14
e 13 15
e 13 16
e 13 17
e 13 18
e 13 19
e 13 20
e 13 21
e 13 23
e 14 15
e 14 16
e 14 17
e 14 18
e 14 19
e 14 20
e 14 21
e 14 22
e 14 24
e 15 16
e 15 17
e 15 18
e 15 20
e 15 21
e 15 22
e 15 23
e 15 24
e 15 25
e 16 17
e 16 18
e 16 21
e 16 22
e 16 23
e 16 24
e 16 25
e 17 18
e 17 19
e 17 20
e 17 21
e 17 22
e 17 24
e 18 19
e 18 20
e 18 21
e 18 22
e 18 23
e 18 24
e 18 25
e 19 20
e 19 21
e 19 22
e 19 23
e 19 24
e 19 25
e 20 22
e 20 23
e 20 24
e 20 25
e 21 22
e 21 24
e 21 25
e 22 23
e 22 24
e 22 25
e 23 24
e 23 25
e 24 25
